p cnf 36 37
1 13 19 25 31 7 0
1 3 0
1 5 6 0
10 0
11 0
12 18 30 0
12 24 30 0
12 24 36 0
12 7 0
12 9 0
13 17 0
14 0
15 17 0
15 21 3 33 0
16 0
17 5 0
18 24 36 6 0
18 30 6 0
2 3 0
2 32 0
2 4 0
2 6 0
20 0
21 23 0
21 24 0
21 33 9 0
22 0
23 29 35 0
25 29 0
26 0
27 0
28 0
29 35 5 0
31 32 33 34 35 36 0
34 4 0
4 5 6 0
8 0